(set-logic QF_LRA)
(declare-fun X0 () Real )
(declare-fun Y0 () Real )
(declare-fun X1 () Real )
(declare-fun Y1 () Real )
(declare-fun X2 () Real )
(declare-fun Y2 () Real )
(declare-fun X3 () Real )
(declare-fun Y3 () Real )
(declare-fun X4 () Real )
(declare-fun Y4 () Real )
(declare-fun X5 () Real )
(declare-fun Y5 () Real )
(declare-fun X6 () Real )
(declare-fun Y6 () Real )
(declare-fun X7 () Real )
(declare-fun Y7 () Real )
(declare-fun X8 () Real )
(declare-fun Y8 () Real )
(declare-fun Z () Real )
(declare-fun k () Real )
(assert (let
(( $goal (>= Z k) ))
(let
((
$phi ( and 
( or ( <= ( + X0 25 ) X1 )  ( <= ( + X1 77 ) X0 )  ( <= ( + Y0 23 ) Y1 )  ( <= ( + Y1 32 ) Y0 )  )
( or ( <= ( + X0 25 ) X2 )  ( <= ( + X2 29 ) X0 )  ( <= ( + Y0 23 ) Y2 )  ( <= ( + Y2 23 ) Y0 )  )
( or ( <= ( + X0 25 ) X3 )  ( <= ( + X3 80 ) X0 )  ( <= ( + Y0 23 ) Y3 )  ( <= ( + Y3 33 ) Y0 )  )
( or ( <= ( + X0 25 ) X4 )  ( <= ( + X4 48 ) X0 )  ( <= ( + Y0 23 ) Y4 )  ( <= ( + Y4 83 ) Y0 )  )
( or ( <= ( + X0 25 ) X5 )  ( <= ( + X5 50 ) X0 )  ( <= ( + Y0 23 ) Y5 )  ( <= ( + Y5 22 ) Y0 )  )
( or ( <= ( + X0 25 ) X6 )  ( <= ( + X6 48 ) X0 )  ( <= ( + Y0 23 ) Y6 )  ( <= ( + Y6 58 ) Y0 )  )
( or ( <= ( + X0 25 ) X7 )  ( <= ( + X7 25 ) X0 )  ( <= ( + Y0 23 ) Y7 )  ( <= ( + Y7 32 ) Y0 )  )
( or ( <= ( + X0 25 ) X8 )  ( <= ( + X8 41 ) X0 )  ( <= ( + Y0 23 ) Y8 )  ( <= ( + Y8 76 ) Y0 )  )
( or ( <= ( + X1 77 ) X2 )  ( <= ( + X2 29 ) X1 )  ( <= ( + Y1 32 ) Y2 )  ( <= ( + Y2 23 ) Y1 )  )
( or ( <= ( + X1 77 ) X3 )  ( <= ( + X3 80 ) X1 )  ( <= ( + Y1 32 ) Y3 )  ( <= ( + Y3 33 ) Y1 )  )
( or ( <= ( + X1 77 ) X4 )  ( <= ( + X4 48 ) X1 )  ( <= ( + Y1 32 ) Y4 )  ( <= ( + Y4 83 ) Y1 )  )
( or ( <= ( + X1 77 ) X5 )  ( <= ( + X5 50 ) X1 )  ( <= ( + Y1 32 ) Y5 )  ( <= ( + Y5 22 ) Y1 )  )
( or ( <= ( + X1 77 ) X6 )  ( <= ( + X6 48 ) X1 )  ( <= ( + Y1 32 ) Y6 )  ( <= ( + Y6 58 ) Y1 )  )
( or ( <= ( + X1 77 ) X7 )  ( <= ( + X7 25 ) X1 )  ( <= ( + Y1 32 ) Y7 )  ( <= ( + Y7 32 ) Y1 )  )
( or ( <= ( + X1 77 ) X8 )  ( <= ( + X8 41 ) X1 )  ( <= ( + Y1 32 ) Y8 )  ( <= ( + Y8 76 ) Y1 )  )
( or ( <= ( + X2 29 ) X3 )  ( <= ( + X3 80 ) X2 )  ( <= ( + Y2 23 ) Y3 )  ( <= ( + Y3 33 ) Y2 )  )
( or ( <= ( + X2 29 ) X4 )  ( <= ( + X4 48 ) X2 )  ( <= ( + Y2 23 ) Y4 )  ( <= ( + Y4 83 ) Y2 )  )
( or ( <= ( + X2 29 ) X5 )  ( <= ( + X5 50 ) X2 )  ( <= ( + Y2 23 ) Y5 )  ( <= ( + Y5 22 ) Y2 )  )
( or ( <= ( + X2 29 ) X6 )  ( <= ( + X6 48 ) X2 )  ( <= ( + Y2 23 ) Y6 )  ( <= ( + Y6 58 ) Y2 )  )
( or ( <= ( + X2 29 ) X7 )  ( <= ( + X7 25 ) X2 )  ( <= ( + Y2 23 ) Y7 )  ( <= ( + Y7 32 ) Y2 )  )
( or ( <= ( + X2 29 ) X8 )  ( <= ( + X8 41 ) X2 )  ( <= ( + Y2 23 ) Y8 )  ( <= ( + Y8 76 ) Y2 )  )
( or ( <= ( + X3 80 ) X4 )  ( <= ( + X4 48 ) X3 )  ( <= ( + Y3 33 ) Y4 )  ( <= ( + Y4 83 ) Y3 )  )
( or ( <= ( + X3 80 ) X5 )  ( <= ( + X5 50 ) X3 )  ( <= ( + Y3 33 ) Y5 )  ( <= ( + Y5 22 ) Y3 )  )
( or ( <= ( + X3 80 ) X6 )  ( <= ( + X6 48 ) X3 )  ( <= ( + Y3 33 ) Y6 )  ( <= ( + Y6 58 ) Y3 )  )
( or ( <= ( + X3 80 ) X7 )  ( <= ( + X7 25 ) X3 )  ( <= ( + Y3 33 ) Y7 )  ( <= ( + Y7 32 ) Y3 )  )
( or ( <= ( + X3 80 ) X8 )  ( <= ( + X8 41 ) X3 )  ( <= ( + Y3 33 ) Y8 )  ( <= ( + Y8 76 ) Y3 )  )
( or ( <= ( + X4 48 ) X5 )  ( <= ( + X5 50 ) X4 )  ( <= ( + Y4 83 ) Y5 )  ( <= ( + Y5 22 ) Y4 )  )
( or ( <= ( + X4 48 ) X6 )  ( <= ( + X6 48 ) X4 )  ( <= ( + Y4 83 ) Y6 )  ( <= ( + Y6 58 ) Y4 )  )
( or ( <= ( + X4 48 ) X7 )  ( <= ( + X7 25 ) X4 )  ( <= ( + Y4 83 ) Y7 )  ( <= ( + Y7 32 ) Y4 )  )
( or ( <= ( + X4 48 ) X8 )  ( <= ( + X8 41 ) X4 )  ( <= ( + Y4 83 ) Y8 )  ( <= ( + Y8 76 ) Y4 )  )
( or ( <= ( + X5 50 ) X6 )  ( <= ( + X6 48 ) X5 )  ( <= ( + Y5 22 ) Y6 )  ( <= ( + Y6 58 ) Y5 )  )
( or ( <= ( + X5 50 ) X7 )  ( <= ( + X7 25 ) X5 )  ( <= ( + Y5 22 ) Y7 )  ( <= ( + Y7 32 ) Y5 )  )
( or ( <= ( + X5 50 ) X8 )  ( <= ( + X8 41 ) X5 )  ( <= ( + Y5 22 ) Y8 )  ( <= ( + Y8 76 ) Y5 )  )
( or ( <= ( + X6 48 ) X7 )  ( <= ( + X7 25 ) X6 )  ( <= ( + Y6 58 ) Y7 )  ( <= ( + Y7 32 ) Y6 )  )
( or ( <= ( + X6 48 ) X8 )  ( <= ( + X8 41 ) X6 )  ( <= ( + Y6 58 ) Y8 )  ( <= ( + Y8 76 ) Y6 )  )
( or ( <= ( + X7 25 ) X8 )  ( <= ( + X8 41 ) X7 )  ( <= ( + Y7 32 ) Y8 )  ( <= ( + Y8 76 ) Y7 )  )
( >= X0 0)
( <= ( + X0 25) Z)
( >= Y0 0)
( <= ( + Y0 23 ) 100)
( >= X1 0)
( <= ( + X1 77) Z)
( >= Y1 0)
( <= ( + Y1 32 ) 100)
( >= X2 0)
( <= ( + X2 29) Z)
( >= Y2 0)
( <= ( + Y2 23 ) 100)
( >= X3 0)
( <= ( + X3 80) Z)
( >= Y3 0)
( <= ( + Y3 33 ) 100)
( >= X4 0)
( <= ( + X4 48) Z)
( >= Y4 0)
( <= ( + Y4 83 ) 100)
( >= X5 0)
( <= ( + X5 50) Z)
( >= Y5 0)
( <= ( + Y5 22 ) 100)
( >= X6 0)
( <= ( + X6 48) Z)
( >= Y6 0)
( <= ( + Y6 58 ) 100)
( >= X7 0)
( <= ( + X7 25) Z)
( >= Y7 0)
( <= ( + Y7 32 ) 100)
( >= X8 0)
( <= ( + X8 41) Z)
( >= Y8 0)
( <= ( + Y8 76 ) 100)
) )
)(=> $phi $goal))))